original problem has 1831 variables (1830 bin, 0 int, 0 impl, 1 cont) and 340 constraints
1/1 feasible solution given by solution candidate storage, new primal bound 2.713000e+03

presolving:
(round 1, fast)       1 del vars, 0 del conss, 1 add conss, 0 chg bounds, 0 chg sides, 0 chg coeffs, 0 upgd conss, 0 impls, 0 clqs
(round 2, fast)       1 del vars, 1 del conss, 1 add conss, 0 chg bounds, 1 chg sides, 0 chg coeffs, 0 upgd conss, 0 impls, 0 clqs
   (0.0s) running MILP presolver
   (0.0s) MILP presolver (2 rounds): 0 aggregations, 0 fixings, 0 bound changes
(round 3, exhaustive) 1 del vars, 4 del conss, 1 add conss, 0 chg bounds, 1 chg sides, 0 chg coeffs, 0 upgd conss, 0 impls, 0 clqs
(round 4, exhaustive) 1 del vars, 4 del conss, 1 add conss, 0 chg bounds, 1 chg sides, 0 chg coeffs, 337 upgd conss, 0 impls, 0 clqs
   (0.1s) probing: 51/1830 (2.8%) - 0 fixings, 0 aggregations, 0 implications, 0 bound changes
   (0.1s) probing aborted: 50/50 successive totally useless probings
presolving (5 rounds: 5 fast, 3 medium, 3 exhaustive):
 1 deleted vars, 4 deleted constraints, 1 added constraints, 0 tightened bounds, 0 added holes, 1 changed sides, 0 changed coefficients
 0 implications, 0 cliques
presolved problem has 1830 variables (1830 bin, 0 int, 0 impl, 0 cont) and 337 constraints
    149 constraints of type <knapsack>
    188 constraints of type <logicor>
transformed objective value is always integral (scale: 1)
Presolving Time: 0.06
transformed 1/1 original solutions to the transformed problem space

 time | node  | left  |LP iter|LP it/n|mem/heur|mdpt |vars |cons |rows |cuts |sepa|confs|strbr|  dualbound   | primalbound  |  gap   | compl. 
  0.1s|     1 |     0 |   812 |     - |    15M |   0 |1830 | 337 | 336 |   0 |  0 |   0 |   0 | 2.654737e+03 | 2.713000e+03 |   2.19%| unknown
  0.1s|     1 |     2 |   812 |     - |    15M |   0 |1830 | 337 | 336 |   0 |  1 |   0 |   0 | 2.654737e+03 | 2.713000e+03 |   2.19%| unknown

SCIP Status        : solving was interrupted [node limit reached]
Solving Time (sec) : 0.14
Solving Nodes      : 1
Primal Bound       : +2.71300000000000e+03 (1 solutions)
Dual Bound         : +2.65473680220533e+03
Gap                : 2.19 %
wrote problem to file /mnt/lscratch/users/dferrario/Adaptive-Cutsel-MILP/TransformedInstances/aligninq__trans__seed__1.mps
